NAME : bier127.tsp
COMMENT : Optimal tour for bier127.tsp
TYPE : TOUR
DIMENSION : 127
Total Length: 122456.42652585846
TOUR_SECTION
1
7
105
114
11
9
3
90
116
60
59
62
61
91
58
64
100
10
120
13
115
52
124
56
121
5
50
16
14
12
31
27
80
79
77
18
21
17
20
108
15
106
6
24
23
4
22
19
72
8
67
73
74
68
71
70
69
75
76
78
117
84
81
126
82
83
101
102
63
119
96
109
88
87
86
85
110
104
125
89
92
99
65
113
66
55
47
49
53
48
118
46
94
112
111
107
127
93
95
123
98
97
28
122
33
32
29
25
26
30
41
43
34
39
38
42
40
35
36
37
2
51
57
54
44
45
103
-1
EOF
